1835224
0,46,3,19,64,44,26,16,8,57,14,35,7,67,34,50,38,61,36,52,15,62,20,42,45,33,54,25,48,18,53,12,47,1,58,27,49,43,9,17,56,32,51,13,21,30,37,6,66,63,10,65,5,40,29,24,28,59,22,4,39,55,31,11,41,2,60,23,0